c AI planning file sortnetsort6.AE.stepl.004.qcnf (Jussi.Rintanen@NICTA.com.au)
p cnf 1245 2092 
a 36 37 38 39 40 41 42 43 44 45 46 47 48 49 50 51 52 53 54 55 56 57 58 59 60 61 62 63 64 65 66 67 68 69 70 71 72 73 74 75 76 77 78 79 80 81 82 83 84 85 86 87 88 89 90 91 92 93 94 95 96 97 98 99 100 101 102 103 104 105 106 107 108 109 110 111 112 113 114 115 116 117 118 119 120 121 122 123 124 125 126 127 128 129 130 131 132 133 134 135 1036 1037 1038 1039 1040 1041 1042 1043 1044 1045 1046 1047 1048 1049 1050 1051 1052 1053 1054 1055 1056 1057 1058 1059 1060 1061 1062 1063 1064 1065 1066 1067 1068 1069 1070 1071 1072 1073 1074 1075 1106 1107 1108 1109 1110 1111 1112 1113 1114 1115 1116 1117 1118 1119 1120 1121 1122 1123 1124 1125 1126 1127 1128 1129 1130 1131 1132 1133 1134 1135 1136 1137 1138 1139 1140 1141 1142 1143 1144 1145 1176 1177 1178 1179 1180 1181 1182 1183 1184 1185 1186 1187 1188 1189 1190 1191 1192 1193 1194 1195 1196 1197 1198 1199 1200 1201 1202 1203 1204 1205 1206 1207 1208 1209 1210 1211 1212 1213 1214 1215 0
e 1 2 3 4 5 6 7 8 9 10 11 12 13 14 15 16 17 18 19 20 21 22 23 24 25 26 27 28 29 30 31 32 33 34 35 136 137 138 139 140 141 142 143 144 145 146 147 148 149 150 151 152 153 154 155 156 157 158 159 160 161 162 163 164 165 166 167 168 169 170 171 172 173 174 175 176 177 178 179 180 181 182 183 184 185 186 187 188 189 190 191 192 193 194 195 196 197 198 199 200 201 202 203 204 205 206 207 208 209 210 211 212 213 214 215 216 217 218 219 220 221 222 223 224 225 226 227 228 229 230 231 232 233 234 235 236 237 238 239 240 241 242 243 244 245 246 247 248 249 250 251 252 253 254 255 256 257 258 259 260 261 262 263 264 265 266 267 268 269 270 271 272 273 274 275 276 277 278 279 280 281 282 283 284 285 286 287 288 289 290 291 292 293 294 295 296 297 298 299 300 301 302 303 304 305 306 307 308 309 310 311 312 313 314 315 316 317 318 319 320 321 322 323 324 325 326 327 328 329 330 331 332 333 334 335 336 337 338 339 340 341 342 343 344 345 346 347 348 349 350 351 352 353 354 355 356 357 358 359 360 361 362 363 364 365 366 367 368 369 370 371 372 373 374 375 376 377 378 379 380 381 382 383 384 385 386 387 388 389 390 391 392 393 394 395 396 397 398 399 400 401 402 403 404 405 406 407 408 409 410 411 412 413 414 415 416 417 418 419 420 421 422 423 424 425 426 427 428 429 430 431 432 433 434 435 436 437 438 439 440 441 442 443 444 445 446 447 448 449 450 451 452 453 454 455 456 457 458 459 460 461 462 463 464 465 466 467 468 469 470 471 472 473 474 475 476 477 478 479 480 481 482 483 484 485 486 487 488 489 490 491 492 493 494 495 496 497 498 499 500 501 502 503 504 505 506 507 508 509 510 511 512 513 514 515 516 517 518 519 520 521 522 523 524 525 526 527 528 529 530 531 532 533 534 535 536 537 538 539 540 541 542 543 544 545 546 547 548 549 550 551 552 553 554 555 556 557 558 559 560 561 562 563 564 565 566 567 568 569 570 571 572 573 574 575 576 577 578 579 580 581 582 583 584 585 586 587 588 589 590 591 592 593 594 595 596 597 598 599 600 601 602 603 604 605 606 607 608 609 610 611 612 613 614 615 616 617 618 619 620 621 622 623 624 625 626 627 628 629 630 631 632 633 634 635 636 637 638 639 640 641 642 643 644 645 646 647 648 649 650 651 652 653 654 655 656 657 658 659 660 661 662 663 664 665 666 667 668 669 670 671 672 673 674 675 676 677 678 679 680 681 682 683 684 685 686 687 688 689 690 691 692 693 694 695 696 697 698 699 700 701 702 703 704 705 706 707 708 709 710 711 712 713 714 715 716 717 718 719 720 721 722 723 724 725 726 727 728 729 730 731 732 733 734 735 736 737 738 739 740 741 742 743 744 745 746 747 748 749 750 751 752 753 754 755 756 757 758 759 760 761 762 763 764 765 766 767 768 769 770 771 772 773 774 775 776 777 778 779 780 781 782 783 784 785 786 787 788 789 790 791 792 793 794 795 796 797 798 799 800 801 802 803 804 805 806 807 808 809 810 811 812 813 814 815 816 817 818 819 820 821 822 823 824 825 826 827 828 829 830 831 832 833 834 835 836 837 838 839 840 841 842 843 844 845 846 847 848 849 850 851 852 853 854 855 856 857 858 859 860 861 862 863 864 865 866 867 868 869 870 871 872 873 874 875 876 877 878 879 880 881 882 883 884 885 886 887 888 889 890 891 892 893 894 895 896 897 898 899 900 901 902 903 904 905 906 907 908 909 910 911 912 913 914 915 916 917 918 919 920 921 922 923 924 925 926 927 928 929 930 931 932 933 934 935 936 937 938 939 940 941 942 943 944 945 946 947 948 949 950 951 952 953 954 955 956 957 958 959 960 961 962 963 964 965 966 967 968 969 970 971 972 973 974 975 976 977 978 979 980 981 982 983 984 985 986 987 988 989 990 991 992 993 994 995 996 997 998 999 1000 1001 1002 1003 1004 1005 1006 1007 1008 1009 1010 1011 1012 1013 1014 1015 1016 1017 1018 1019 1020 1021 1022 1023 1024 1025 1026 1027 1028 1029 1030 1031 1032 1033 1034 1035 1076 1077 1078 1079 1080 1081 1082 1083 1084 1085 1086 1087 1088 1089 1090 1091 1092 1093 1094 1095 1096 1097 1098 1099 1100 1101 1102 1103 1104 1105 1146 1147 1148 1149 1150 1151 1152 1153 1154 1155 1156 1157 1158 1159 1160 1161 1162 1163 1164 1165 1166 1167 1168 1169 1170 1171 1172 1173 1174 1175 1216 1217 1218 1219 1220 1221 1222 1223 1224 1225 1226 1227 1228 1229 1230 1231 1232 1233 1234 1235 1236 1237 1238 1239 1240 1241 1242 1243 1244 1245 0
475 476 477 478 479 480 481 482 483 484 485 486 487 488 489 490 491 492 493 494 495 496 497 498 499 500 501 502 503 504 505 506 507 508 509 510 511 512 513 514 515 516 517 518 519 520 521 522 523 524 525 526 527 528 529 530 531 532 533 534 535 536 537 538 539 540 541 542 543 544 545 546 547 548 549 550 551 552 553 554 555 556 557 558 559 560 561 562 563 564 565 566 567 568 569 570 571 572 573 574 575 576 577 578 579 580 581 582 583 584 585 586 587 588 589 590 591 592 593 594 595 596 597 598 599 600 601 602 603 604 605 606 607 608 609 610 611 612 613 614 615 616 617 618 619 620 621 622 623 624 625 626 627 628 629 630 631 632 633 634 635 636 637 638 639 640 641 642 643 644 645 646 647 648 649 650 651 652 653 654 655 656 657 658 659 660 661 662 663 664 665 666 667 668 669 670 671 672 673 674 675 676 677 678 679 680 681 682 683 684 685 686 687 688 689 690 691 692 693 694 695 696 697 698 699 700 701 702 703 704 705 706 707 708 709 710 711 712 713 714 715 716 717 718 719 720 721 722 723 724 725 726 727 728 729 730 731 732 733 734 735 736 737 738 739 740 741 742 743 744 745 746 747 748 749 750 751 752 753 754 755 756 757 758 759 760 761 762 763 764 765 766 767 768 769 770 771 772 773 774 775 776 777 778 779 780 781 782 783 784 785 786 787 788 789 790 791 792 793 794 795 796 797 798 799 800 801 802 803 804 805 806 807 808 809 810 811 812 813 814 815 816 817 818 819 820 821 822 823 824 825 826 827 828 829 830 831 832 833 834 835 836 837 838 839 840 841 842 843 844 845 846 847 848 849 850 851 852 853 854 855 856 857 858 859 860 861 862 863 864 865 866 867 868 869 870 871 872 873 874 875 876 877 878 879 880 881 882 883 884 885 886 887 888 889 890 891 892 893 894 895 896 897 898 899 900 901 902 903 904 905 906 907 908 909 910 911 912 913 914 915 916 917 918 919 920 921 922 923 924 925 926 927 928 929 930 931 932 933 934 935 936 937 938 939 940 941 942 943 944 945 946 947 948 949 950 951 952 953 954 955 956 957 958 959 960 961 962 963 964 965 966 967 968 969 970 971 972 973 974 975 976 977 978 979 980 981 982 983 984 985 986 987 988 989 990 991 992 993 994 995 996 997 998 999 1000 1001 1002 1003 1004 1005 1006 1007 1008 1009 1010 1011 1012 1013 1014 1015 1016 1017 1018 1019 1020 1021 1022 1023 1024 1025 1026 1027 1028 1029 1030 1031 1032 1033 1034 1035 0
-475 459 460 461 462 463 464 465 466 467 468 469 470 471 472 473 474 0
-476 114 0
-476 -115 0
-477 40 0
-477 -115 0
-478 114 0
-478 40 0
-479 113 0
-479 -114 0
-480 39 0
-480 -114 0
-481 113 0
-481 39 0
-482 112 0
-482 -113 0
-483 38 0
-483 -113 0
-484 112 0
-484 38 0
-485 36 0
-485 -112 0
-486 37 0
-486 -112 0
-487 36 0
-487 37 0
-488 110 0
-488 -111 0
-489 44 0
-489 -111 0
-490 110 0
-490 44 0
-491 109 0
-491 -110 0
-492 43 0
-492 -110 0
-493 109 0
-493 43 0
-494 41 0
-494 -109 0
-495 42 0
-495 -109 0
-496 41 0
-496 42 0
-497 36 0
-497 44 0
-498 36 0
-498 43 0
-499 36 0
-499 42 0
-500 36 0
-500 41 0
-501 107 0
-501 -108 0
-502 47 0
-502 -108 0
-503 107 0
-503 47 0
-504 45 0
-504 -107 0
-505 46 0
-505 -107 0
-506 45 0
-506 46 0
-507 106 0
-507 47 0
-508 106 0
-508 46 0
-509 106 0
-509 45 0
-510 37 0
-510 -106 0
-511 41 0
-511 -106 0
-512 37 0
-512 41 0
-513 48 0
-513 -105 0
-514 49 0
-514 -105 0
-515 48 0
-515 49 0
-516 104 0
-516 49 0
-517 104 0
-517 48 0
-518 103 0
-518 -104 0
-519 45 0
-519 -104 0
-520 103 0
-520 45 0
-521 38 0
-521 -103 0
-522 42 0
-522 -103 0
-523 38 0
-523 42 0
-524 102 0
-524 50 0
-525 101 0
-525 -102 0
-526 48 0
-526 -102 0
-527 101 0
-527 48 0
-528 100 0
-528 -101 0
-529 46 0
-529 -101 0
-530 100 0
-530 46 0
-531 39 0
-531 -100 0
-532 43 0
-532 -100 0
-533 39 0
-533 43 0
-534 98 0
-534 -99 0
-535 50 0
-535 -99 0
-536 98 0
-536 50 0
-537 97 0
-537 -98 0
-538 49 0
-538 -98 0
-539 97 0
-539 49 0
-540 96 0
-540 -97 0
-541 47 0
-541 -97 0
-542 96 0
-542 47 0
-543 40 0
-543 -96 0
-544 44 0
-544 -96 0
-545 40 0
-545 44 0
-546 134 0
-546 -135 0
-547 36 0
-547 -135 0
-548 134 0
-548 36 0
-549 133 0
-549 -134 0
-550 37 0
-550 -134 0
-551 133 0
-551 37 0
-552 132 0
-552 -133 0
-553 38 0
-553 -133 0
-554 132 0
-554 38 0
-555 40 0
-555 -132 0
-556 39 0
-556 -132 0
-557 40 0
-557 39 0
-558 131 0
-558 36 0
-559 130 0
-559 -131 0
-560 41 0
-560 -131 0
-561 130 0
-561 41 0
-562 129 0
-562 -130 0
-563 42 0
-563 -130 0
-564 129 0
-564 42 0
-565 44 0
-565 -129 0
-566 43 0
-566 -129 0
-567 44 0
-567 43 0
-568 128 0
-568 37 0
-569 128 0
-569 41 0
-570 127 0
-570 -128 0
-571 45 0
-571 -128 0
-572 127 0
-572 45 0
-573 47 0
-573 -127 0
-574 46 0
-574 -127 0
-575 47 0
-575 46 0
-576 41 0
-576 -126 0
-577 37 0
-577 -126 0
-578 41 0
-578 37 0
-579 125 0
-579 38 0
-580 125 0
-580 42 0
-581 125 0
-581 45 0
-582 49 0
-582 -125 0
-583 48 0
-583 -125 0
-584 49 0
-584 48 0
-585 123 0
-585 -124 0
-586 38 0
-586 -124 0
-587 123 0
-587 38 0
-588 45 0
-588 -123 0
-589 42 0
-589 -123 0
-590 45 0
-590 42 0
-591 50 0
-591 39 0
-592 50 0
-592 43 0
-593 50 0
-593 46 0
-594 50 0
-594 48 0
-595 121 0
-595 -122 0
-596 39 0
-596 -122 0
-597 121 0
-597 39 0
-598 120 0
-598 -121 0
-599 43 0
-599 -121 0
-600 120 0
-600 43 0
-601 48 0
-601 -120 0
-602 46 0
-602 -120 0
-603 48 0
-603 46 0
-604 118 0
-604 -119 0
-605 40 0
-605 -119 0
-606 118 0
-606 40 0
-607 117 0
-607 -118 0
-608 44 0
-608 -118 0
-609 117 0
-609 44 0
-610 116 0
-610 -117 0
-611 47 0
-611 -117 0
-612 116 0
-612 47 0
-613 50 0
-613 -116 0
-614 49 0
-614 -116 0
-615 50 0
-615 49 0
-616 1054 0
-616 -1055 0
-617 55 0
-617 -1055 0
-618 1054 0
-618 55 0
-619 1053 0
-619 -1054 0
-620 54 0
-620 -1054 0
-621 1053 0
-621 54 0
-622 1052 0
-622 -1053 0
-623 53 0
-623 -1053 0
-624 1052 0
-624 53 0
-625 51 0
-625 -1052 0
-626 52 0
-626 -1052 0
-627 51 0
-627 52 0
-628 1050 0
-628 -1051 0
-629 59 0
-629 -1051 0
-630 1050 0
-630 59 0
-631 1049 0
-631 -1050 0
-632 58 0
-632 -1050 0
-633 1049 0
-633 58 0
-634 56 0
-634 -1049 0
-635 57 0
-635 -1049 0
-636 56 0
-636 57 0
-637 51 0
-637 59 0
-638 51 0
-638 58 0
-639 51 0
-639 57 0
-640 51 0
-640 56 0
-641 1047 0
-641 -1048 0
-642 62 0
-642 -1048 0
-643 1047 0
-643 62 0
-644 60 0
-644 -1047 0
-645 61 0
-645 -1047 0
-646 60 0
-646 61 0
-647 1046 0
-647 62 0
-648 1046 0
-648 61 0
-649 1046 0
-649 60 0
-650 52 0
-650 -1046 0
-651 56 0
-651 -1046 0
-652 52 0
-652 56 0
-653 63 0
-653 -1045 0
-654 64 0
-654 -1045 0
-655 63 0
-655 64 0
-656 1044 0
-656 64 0
-657 1044 0
-657 63 0
-658 1043 0
-658 -1044 0
-659 60 0
-659 -1044 0
-660 1043 0
-660 60 0
-661 53 0
-661 -1043 0
-662 57 0
-662 -1043 0
-663 53 0
-663 57 0
-664 1042 0
-664 65 0
-665 1041 0
-665 -1042 0
-666 63 0
-666 -1042 0
-667 1041 0
-667 63 0
-668 1040 0
-668 -1041 0
-669 61 0
-669 -1041 0
-670 1040 0
-670 61 0
-671 54 0
-671 -1040 0
-672 58 0
-672 -1040 0
-673 54 0
-673 58 0
-674 1038 0
-674 -1039 0
-675 65 0
-675 -1039 0
-676 1038 0
-676 65 0
-677 1037 0
-677 -1038 0
-678 64 0
-678 -1038 0
-679 1037 0
-679 64 0
-680 1036 0
-680 -1037 0
-681 62 0
-681 -1037 0
-682 1036 0
-682 62 0
-683 55 0
-683 -1036 0
-684 59 0
-684 -1036 0
-685 55 0
-685 59 0
-686 1074 0
-686 -1075 0
-687 51 0
-687 -1075 0
-688 1074 0
-688 51 0
-689 1073 0
-689 -1074 0
-690 52 0
-690 -1074 0
-691 1073 0
-691 52 0
-692 1072 0
-692 -1073 0
-693 53 0
-693 -1073 0
-694 1072 0
-694 53 0
-695 55 0
-695 -1072 0
-696 54 0
-696 -1072 0
-697 55 0
-697 54 0
-698 1071 0
-698 51 0
-699 1070 0
-699 -1071 0
-700 56 0
-700 -1071 0
-701 1070 0
-701 56 0
-702 1069 0
-702 -1070 0
-703 57 0
-703 -1070 0
-704 1069 0
-704 57 0
-705 59 0
-705 -1069 0
-706 58 0
-706 -1069 0
-707 59 0
-707 58 0
-708 1068 0
-708 52 0
-709 1068 0
-709 56 0
-710 1067 0
-710 -1068 0
-711 60 0
-711 -1068 0
-712 1067 0
-712 60 0
-713 62 0
-713 -1067 0
-714 61 0
-714 -1067 0
-715 62 0
-715 61 0
-716 56 0
-716 -1066 0
-717 52 0
-717 -1066 0
-718 56 0
-718 52 0
-719 1065 0
-719 53 0
-720 1065 0
-720 57 0
-721 1065 0
-721 60 0
-722 64 0
-722 -1065 0
-723 63 0
-723 -1065 0
-724 64 0
-724 63 0
-725 1063 0
-725 -1064 0
-726 53 0
-726 -1064 0
-727 1063 0
-727 53 0
-728 60 0
-728 -1063 0
-729 57 0
-729 -1063 0
-730 60 0
-730 57 0
-731 65 0
-731 54 0
-732 65 0
-732 58 0
-733 65 0
-733 61 0
-734 65 0
-734 63 0
-735 1061 0
-735 -1062 0
-736 54 0
-736 -1062 0
-737 1061 0
-737 54 0
-738 1060 0
-738 -1061 0
-739 58 0
-739 -1061 0
-740 1060 0
-740 58 0
-741 63 0
-741 -1060 0
-742 61 0
-742 -1060 0
-743 63 0
-743 61 0
-744 1058 0
-744 -1059 0
-745 55 0
-745 -1059 0
-746 1058 0
-746 55 0
-747 1057 0
-747 -1058 0
-748 59 0
-748 -1058 0
-749 1057 0
-749 59 0
-750 1056 0
-750 -1057 0
-751 62 0
-751 -1057 0
-752 1056 0
-752 62 0
-753 65 0
-753 -1056 0
-754 64 0
-754 -1056 0
-755 65 0
-755 64 0
-756 1124 0
-756 -1125 0
-757 70 0
-757 -1125 0
-758 1124 0
-758 70 0
-759 1123 0
-759 -1124 0
-760 69 0
-760 -1124 0
-761 1123 0
-761 69 0
-762 1122 0
-762 -1123 0
-763 68 0
-763 -1123 0
-764 1122 0
-764 68 0
-765 66 0
-765 -1122 0
-766 67 0
-766 -1122 0
-767 66 0
-767 67 0
-768 1120 0
-768 -1121 0
-769 74 0
-769 -1121 0
-770 1120 0
-770 74 0
-771 1119 0
-771 -1120 0
-772 73 0
-772 -1120 0
-773 1119 0
-773 73 0
-774 71 0
-774 -1119 0
-775 72 0
-775 -1119 0
-776 71 0
-776 72 0
-777 66 0
-777 74 0
-778 66 0
-778 73 0
-779 66 0
-779 72 0
-780 66 0
-780 71 0
-781 1117 0
-781 -1118 0
-782 77 0
-782 -1118 0
-783 1117 0
-783 77 0
-784 75 0
-784 -1117 0
-785 76 0
-785 -1117 0
-786 75 0
-786 76 0
-787 1116 0
-787 77 0
-788 1116 0
-788 76 0
-789 1116 0
-789 75 0
-790 67 0
-790 -1116 0
-791 71 0
-791 -1116 0
-792 67 0
-792 71 0
-793 78 0
-793 -1115 0
-794 79 0
-794 -1115 0
-795 78 0
-795 79 0
-796 1114 0
-796 79 0
-797 1114 0
-797 78 0
-798 1113 0
-798 -1114 0
-799 75 0
-799 -1114 0
-800 1113 0
-800 75 0
-801 68 0
-801 -1113 0
-802 72 0
-802 -1113 0
-803 68 0
-803 72 0
-804 1112 0
-804 80 0
-805 1111 0
-805 -1112 0
-806 78 0
-806 -1112 0
-807 1111 0
-807 78 0
-808 1110 0
-808 -1111 0
-809 76 0
-809 -1111 0
-810 1110 0
-810 76 0
-811 69 0
-811 -1110 0
-812 73 0
-812 -1110 0
-813 69 0
-813 73 0
-814 1108 0
-814 -1109 0
-815 80 0
-815 -1109 0
-816 1108 0
-816 80 0
-817 1107 0
-817 -1108 0
-818 79 0
-818 -1108 0
-819 1107 0
-819 79 0
-820 1106 0
-820 -1107 0
-821 77 0
-821 -1107 0
-822 1106 0
-822 77 0
-823 70 0
-823 -1106 0
-824 74 0
-824 -1106 0
-825 70 0
-825 74 0
-826 1144 0
-826 -1145 0
-827 66 0
-827 -1145 0
-828 1144 0
-828 66 0
-829 1143 0
-829 -1144 0
-830 67 0
-830 -1144 0
-831 1143 0
-831 67 0
-832 1142 0
-832 -1143 0
-833 68 0
-833 -1143 0
-834 1142 0
-834 68 0
-835 70 0
-835 -1142 0
-836 69 0
-836 -1142 0
-837 70 0
-837 69 0
-838 1141 0
-838 66 0
-839 1140 0
-839 -1141 0
-840 71 0
-840 -1141 0
-841 1140 0
-841 71 0
-842 1139 0
-842 -1140 0
-843 72 0
-843 -1140 0
-844 1139 0
-844 72 0
-845 74 0
-845 -1139 0
-846 73 0
-846 -1139 0
-847 74 0
-847 73 0
-848 1138 0
-848 67 0
-849 1138 0
-849 71 0
-850 1137 0
-850 -1138 0
-851 75 0
-851 -1138 0
-852 1137 0
-852 75 0
-853 77 0
-853 -1137 0
-854 76 0
-854 -1137 0
-855 77 0
-855 76 0
-856 71 0
-856 -1136 0
-857 67 0
-857 -1136 0
-858 71 0
-858 67 0
-859 1135 0
-859 68 0
-860 1135 0
-860 72 0
-861 1135 0
-861 75 0
-862 79 0
-862 -1135 0
-863 78 0
-863 -1135 0
-864 79 0
-864 78 0
-865 1133 0
-865 -1134 0
-866 68 0
-866 -1134 0
-867 1133 0
-867 68 0
-868 75 0
-868 -1133 0
-869 72 0
-869 -1133 0
-870 75 0
-870 72 0
-871 80 0
-871 69 0
-872 80 0
-872 73 0
-873 80 0
-873 76 0
-874 80 0
-874 78 0
-875 1131 0
-875 -1132 0
-876 69 0
-876 -1132 0
-877 1131 0
-877 69 0
-878 1130 0
-878 -1131 0
-879 73 0
-879 -1131 0
-880 1130 0
-880 73 0
-881 78 0
-881 -1130 0
-882 76 0
-882 -1130 0
-883 78 0
-883 76 0
-884 1128 0
-884 -1129 0
-885 70 0
-885 -1129 0
-886 1128 0
-886 70 0
-887 1127 0
-887 -1128 0
-888 74 0
-888 -1128 0
-889 1127 0
-889 74 0
-890 1126 0
-890 -1127 0
-891 77 0
-891 -1127 0
-892 1126 0
-892 77 0
-893 80 0
-893 -1126 0
-894 79 0
-894 -1126 0
-895 80 0
-895 79 0
-896 1194 0
-896 -1195 0
-897 85 0
-897 -1195 0
-898 1194 0
-898 85 0
-899 1193 0
-899 -1194 0
-900 84 0
-900 -1194 0
-901 1193 0
-901 84 0
-902 1192 0
-902 -1193 0
-903 83 0
-903 -1193 0
-904 1192 0
-904 83 0
-905 81 0
-905 -1192 0
-906 82 0
-906 -1192 0
-907 81 0
-907 82 0
-908 1190 0
-908 -1191 0
-909 89 0
-909 -1191 0
-910 1190 0
-910 89 0
-911 1189 0
-911 -1190 0
-912 88 0
-912 -1190 0
-913 1189 0
-913 88 0
-914 86 0
-914 -1189 0
-915 87 0
-915 -1189 0
-916 86 0
-916 87 0
-917 81 0
-917 89 0
-918 81 0
-918 88 0
-919 81 0
-919 87 0
-920 81 0
-920 86 0
-921 1187 0
-921 -1188 0
-922 92 0
-922 -1188 0
-923 1187 0
-923 92 0
-924 90 0
-924 -1187 0
-925 91 0
-925 -1187 0
-926 90 0
-926 91 0
-927 1186 0
-927 92 0
-928 1186 0
-928 91 0
-929 1186 0
-929 90 0
-930 82 0
-930 -1186 0
-931 86 0
-931 -1186 0
-932 82 0
-932 86 0
-933 93 0
-933 -1185 0
-934 94 0
-934 -1185 0
-935 93 0
-935 94 0
-936 1184 0
-936 94 0
-937 1184 0
-937 93 0
-938 1183 0
-938 -1184 0
-939 90 0
-939 -1184 0
-940 1183 0
-940 90 0
-941 83 0
-941 -1183 0
-942 87 0
-942 -1183 0
-943 83 0
-943 87 0
-944 1182 0
-944 95 0
-945 1181 0
-945 -1182 0
-946 93 0
-946 -1182 0
-947 1181 0
-947 93 0
-948 1180 0
-948 -1181 0
-949 91 0
-949 -1181 0
-950 1180 0
-950 91 0
-951 84 0
-951 -1180 0
-952 88 0
-952 -1180 0
-953 84 0
-953 88 0
-954 1178 0
-954 -1179 0
-955 95 0
-955 -1179 0
-956 1178 0
-956 95 0
-957 1177 0
-957 -1178 0
-958 94 0
-958 -1178 0
-959 1177 0
-959 94 0
-960 1176 0
-960 -1177 0
-961 92 0
-961 -1177 0
-962 1176 0
-962 92 0
-963 85 0
-963 -1176 0
-964 89 0
-964 -1176 0
-965 85 0
-965 89 0
-966 1214 0
-966 -1215 0
-967 81 0
-967 -1215 0
-968 1214 0
-968 81 0
-969 1213 0
-969 -1214 0
-970 82 0
-970 -1214 0
-971 1213 0
-971 82 0
-972 1212 0
-972 -1213 0
-973 83 0
-973 -1213 0
-974 1212 0
-974 83 0
-975 85 0
-975 -1212 0
-976 84 0
-976 -1212 0
-977 85 0
-977 84 0
-978 1211 0
-978 81 0
-979 1210 0
-979 -1211 0
-980 86 0
-980 -1211 0
-981 1210 0
-981 86 0
-982 1209 0
-982 -1210 0
-983 87 0
-983 -1210 0
-984 1209 0
-984 87 0
-985 89 0
-985 -1209 0
-986 88 0
-986 -1209 0
-987 89 0
-987 88 0
-988 1208 0
-988 82 0
-989 1208 0
-989 86 0
-990 1207 0
-990 -1208 0
-991 90 0
-991 -1208 0
-992 1207 0
-992 90 0
-993 92 0
-993 -1207 0
-994 91 0
-994 -1207 0
-995 92 0
-995 91 0
-996 86 0
-996 -1206 0
-997 82 0
-997 -1206 0
-998 86 0
-998 82 0
-999 1205 0
-999 83 0
-1000 1205 0
-1000 87 0
-1001 1205 0
-1001 90 0
-1002 94 0
-1002 -1205 0
-1003 93 0
-1003 -1205 0
-1004 94 0
-1004 93 0
-1005 1203 0
-1005 -1204 0
-1006 83 0
-1006 -1204 0
-1007 1203 0
-1007 83 0
-1008 90 0
-1008 -1203 0
-1009 87 0
-1009 -1203 0
-1010 90 0
-1010 87 0
-1011 95 0
-1011 84 0
-1012 95 0
-1012 88 0
-1013 95 0
-1013 91 0
-1014 95 0
-1014 93 0
-1015 1201 0
-1015 -1202 0
-1016 84 0
-1016 -1202 0
-1017 1201 0
-1017 84 0
-1018 1200 0
-1018 -1201 0
-1019 88 0
-1019 -1201 0
-1020 1200 0
-1020 88 0
-1021 93 0
-1021 -1200 0
-1022 91 0
-1022 -1200 0
-1023 93 0
-1023 91 0
-1024 1198 0
-1024 -1199 0
-1025 85 0
-1025 -1199 0
-1026 1198 0
-1026 85 0
-1027 1197 0
-1027 -1198 0
-1028 89 0
-1028 -1198 0
-1029 1197 0
-1029 89 0
-1030 1196 0
-1030 -1197 0
-1031 92 0
-1031 -1197 0
-1032 1196 0
-1032 92 0
-1033 95 0
-1033 -1196 0
-1034 94 0
-1034 -1196 0
-1035 95 0
-1035 94 0
-459 1 -8 0
-459 -1 8 140 139 138 137 136 0
-459 -140 458 0
-459 -36 -1 2 140 0
-459 -139 457 0
-459 -37 -1 3 139 0
-459 -138 456 0
-459 -38 -1 4 138 0
-459 -137 455 0
-459 -39 -1 5 137 0
-459 -136 454 0
-459 -40 -1 6 136 0
-459 2 -9 141 0
-459 -2 9 145 144 143 142 0
-459 -141 453 0
-459 -36 -1 2 141 0
-459 -145 452 0
-459 -41 -2 3 145 0
-459 -144 451 0
-459 -42 -2 4 144 0
-459 -143 450 0
-459 -43 -2 5 143 0
-459 -142 449 0
-459 -44 -2 6 142 0
-459 3 -10 147 146 0
-459 -3 10 150 149 148 0
-459 -147 448 0
-459 -37 -1 3 147 0
-459 -146 447 0
-459 -41 -2 3 146 0
-459 -150 446 0
-459 -45 -3 4 150 0
-459 -149 445 0
-459 -46 -3 5 149 0
-459 -148 444 0
-459 -47 -3 6 148 0
-459 4 -11 153 152 151 0
-459 -4 11 155 154 0
-459 -153 443 0
-459 -38 -1 4 153 0
-459 -152 442 0
-459 -42 -2 4 152 0
-459 -151 441 0
-459 -45 -3 4 151 0
-459 -155 440 0
-459 -48 -4 5 155 0
-459 -154 439 0
-459 -49 -4 6 154 0
-459 5 -12 159 158 157 156 0
-459 -5 12 160 0
-459 -159 438 0
-459 -39 -1 5 159 0
-459 -158 437 0
-459 -43 -2 5 158 0
-459 -157 436 0
-459 -46 -3 5 157 0
-459 -156 435 0
-459 -48 -4 5 156 0
-459 -160 434 0
-459 -50 -5 6 160 0
-459 6 -13 165 164 163 162 161 0
-459 -6 13 0
-459 -165 433 0
-459 -40 -1 6 165 0
-459 -164 432 0
-459 -44 -2 6 164 0
-459 -163 431 0
-459 -47 -3 6 163 0
-459 -162 430 0
-459 -49 -4 6 162 0
-459 -161 429 0
-459 -50 -5 6 161 0
-459 7 -14 0
-459 -7 14 0
-459 427 428 0
-459 425 426 0
-459 423 424 0
-459 421 422 0
-459 419 420 0
-459 417 418 0
-459 415 416 0
-459 413 414 0
-459 411 412 0
-459 409 410 0
-459 407 408 0
-459 405 406 0
-459 403 404 0
-459 401 402 0
-459 399 400 0
-459 383 384 385 386 387 388 389 390 391 392 393 394 395 396 397 398 0
-460 0
-461 0
-462 0
-463 0
-464 0
-465 0
-466 0
-467 0
-468 0
-469 0
-470 0
-471 0
-472 0
-473 0
-474 0
-458 36 0
-458 1 0
-458 -2 0
-457 37 0
-457 1 0
-457 -3 0
-456 38 0
-456 1 0
-456 -4 0
-455 39 0
-455 1 0
-455 -5 0
-454 40 0
-454 1 0
-454 -6 0
-453 36 0
-453 1 0
-453 -2 0
-452 41 0
-452 2 0
-452 -3 0
-451 42 0
-451 2 0
-451 -4 0
-450 43 0
-450 2 0
-450 -5 0
-449 44 0
-449 2 0
-449 -6 0
-448 37 0
-448 1 0
-448 -3 0
-447 41 0
-447 2 0
-447 -3 0
-446 45 0
-446 3 0
-446 -4 0
-445 46 0
-445 3 0
-445 -5 0
-444 47 0
-444 3 0
-444 -6 0
-443 38 0
-443 1 0
-443 -4 0
-442 42 0
-442 2 0
-442 -4 0
-441 45 0
-441 3 0
-441 -4 0
-440 48 0
-440 4 0
-440 -5 0
-439 49 0
-439 4 0
-439 -6 0
-438 39 0
-438 1 0
-438 -5 0
-437 43 0
-437 2 0
-437 -5 0
-436 46 0
-436 3 0
-436 -5 0
-435 48 0
-435 4 0
-435 -5 0
-434 50 0
-434 5 0
-434 -6 0
-433 40 0
-433 1 0
-433 -6 0
-432 44 0
-432 2 0
-432 -6 0
-431 47 0
-431 3 0
-431 -6 0
-430 49 0
-430 4 0
-430 -6 0
-429 50 0
-429 5 0
-429 -6 0
-427 -36 -1 2 0
-428 -8 0
-428 9 0
-425 -37 -1 3 0
-426 -8 0
-426 10 0
-423 -38 -1 4 0
-424 -8 0
-424 11 0
-421 -39 -1 5 0
-422 -8 0
-422 12 0
-419 -40 -1 6 0
-420 -8 0
-420 13 0
-417 -41 -2 3 0
-418 -9 0
-418 10 0
-415 -42 -2 4 0
-416 -9 0
-416 11 0
-413 -43 -2 5 0
-414 -9 0
-414 12 0
-411 -44 -2 6 0
-412 -9 0
-412 13 0
-409 -45 -3 4 0
-410 -10 0
-410 11 0
-407 -46 -3 5 0
-408 -10 0
-408 12 0
-405 -47 -3 6 0
-406 -10 0
-406 13 0
-403 -48 -4 5 0
-404 -11 0
-404 12 0
-401 -49 -4 6 0
-402 -11 0
-402 13 0
-399 -50 -5 6 0
-400 -12 0
-400 13 0
-383 8 -15 0
-383 -8 15 1080 1079 1078 1077 1076 0
-383 -1080 382 0
-383 -51 -8 9 1080 0
-383 -1079 381 0
-383 -52 -8 10 1079 0
-383 -1078 380 0
-383 -53 -8 11 1078 0
-383 -1077 379 0
-383 -54 -8 12 1077 0
-383 -1076 378 0
-383 -55 -8 13 1076 0
-383 9 -16 1081 0
-383 -9 16 1085 1084 1083 1082 0
-383 -1081 377 0
-383 -51 -8 9 1081 0
-383 -1085 376 0
-383 -56 -9 10 1085 0
-383 -1084 375 0
-383 -57 -9 11 1084 0
-383 -1083 374 0
-383 -58 -9 12 1083 0
-383 -1082 373 0
-383 -59 -9 13 1082 0
-383 10 -17 1087 1086 0
-383 -10 17 1090 1089 1088 0
-383 -1087 372 0
-383 -52 -8 10 1087 0
-383 -1086 371 0
-383 -56 -9 10 1086 0
-383 -1090 370 0
-383 -60 -10 11 1090 0
-383 -1089 369 0
-383 -61 -10 12 1089 0
-383 -1088 368 0
-383 -62 -10 13 1088 0
-383 11 -18 1093 1092 1091 0
-383 -11 18 1095 1094 0
-383 -1093 367 0
-383 -53 -8 11 1093 0
-383 -1092 366 0
-383 -57 -9 11 1092 0
-383 -1091 365 0
-383 -60 -10 11 1091 0
-383 -1095 364 0
-383 -63 -11 12 1095 0
-383 -1094 363 0
-383 -64 -11 13 1094 0
-383 12 -19 1099 1098 1097 1096 0
-383 -12 19 1100 0
-383 -1099 362 0
-383 -54 -8 12 1099 0
-383 -1098 361 0
-383 -58 -9 12 1098 0
-383 -1097 360 0
-383 -61 -10 12 1097 0
-383 -1096 359 0
-383 -63 -11 12 1096 0
-383 -1100 358 0
-383 -65 -12 13 1100 0
-383 13 -20 1105 1104 1103 1102 1101 0
-383 -13 20 0
-383 -1105 357 0
-383 -55 -8 13 1105 0
-383 -1104 356 0
-383 -59 -9 13 1104 0
-383 -1103 355 0
-383 -62 -10 13 1103 0
-383 -1102 354 0
-383 -64 -11 13 1102 0
-383 -1101 353 0
-383 -65 -12 13 1101 0
-383 14 -21 0
-383 -14 21 0
-383 351 352 0
-383 349 350 0
-383 347 348 0
-383 345 346 0
-383 343 344 0
-383 341 342 0
-383 339 340 0
-383 337 338 0
-383 335 336 0
-383 333 334 0
-383 331 332 0
-383 329 330 0
-383 327 328 0
-383 325 326 0
-383 323 324 0
-383 307 308 309 310 311 312 313 314 315 316 317 318 319 320 321 322 0
-384 0
-385 0
-386 0
-387 0
-388 0
-389 0
-390 0
-391 0
-392 0
-393 0
-394 0
-395 0
-396 0
-397 0
-398 0
-382 51 0
-382 8 0
-382 -9 0
-381 52 0
-381 8 0
-381 -10 0
-380 53 0
-380 8 0
-380 -11 0
-379 54 0
-379 8 0
-379 -12 0
-378 55 0
-378 8 0
-378 -13 0
-377 51 0
-377 8 0
-377 -9 0
-376 56 0
-376 9 0
-376 -10 0
-375 57 0
-375 9 0
-375 -11 0
-374 58 0
-374 9 0
-374 -12 0
-373 59 0
-373 9 0
-373 -13 0
-372 52 0
-372 8 0
-372 -10 0
-371 56 0
-371 9 0
-371 -10 0
-370 60 0
-370 10 0
-370 -11 0
-369 61 0
-369 10 0
-369 -12 0
-368 62 0
-368 10 0
-368 -13 0
-367 53 0
-367 8 0
-367 -11 0
-366 57 0
-366 9 0
-366 -11 0
-365 60 0
-365 10 0
-365 -11 0
-364 63 0
-364 11 0
-364 -12 0
-363 64 0
-363 11 0
-363 -13 0
-362 54 0
-362 8 0
-362 -12 0
-361 58 0
-361 9 0
-361 -12 0
-360 61 0
-360 10 0
-360 -12 0
-359 63 0
-359 11 0
-359 -12 0
-358 65 0
-358 12 0
-358 -13 0
-357 55 0
-357 8 0
-357 -13 0
-356 59 0
-356 9 0
-356 -13 0
-355 62 0
-355 10 0
-355 -13 0
-354 64 0
-354 11 0
-354 -13 0
-353 65 0
-353 12 0
-353 -13 0
-351 -51 -8 9 0
-352 -15 0
-352 16 0
-349 -52 -8 10 0
-350 -15 0
-350 17 0
-347 -53 -8 11 0
-348 -15 0
-348 18 0
-345 -54 -8 12 0
-346 -15 0
-346 19 0
-343 -55 -8 13 0
-344 -15 0
-344 20 0
-341 -56 -9 10 0
-342 -16 0
-342 17 0
-339 -57 -9 11 0
-340 -16 0
-340 18 0
-337 -58 -9 12 0
-338 -16 0
-338 19 0
-335 -59 -9 13 0
-336 -16 0
-336 20 0
-333 -60 -10 11 0
-334 -17 0
-334 18 0
-331 -61 -10 12 0
-332 -17 0
-332 19 0
-329 -62 -10 13 0
-330 -17 0
-330 20 0
-327 -63 -11 12 0
-328 -18 0
-328 19 0
-325 -64 -11 13 0
-326 -18 0
-326 20 0
-323 -65 -12 13 0
-324 -19 0
-324 20 0
-307 15 -22 0
-307 -15 22 1150 1149 1148 1147 1146 0
-307 -1150 306 0
-307 -66 -15 16 1150 0
-307 -1149 305 0
-307 -67 -15 17 1149 0
-307 -1148 304 0
-307 -68 -15 18 1148 0
-307 -1147 303 0
-307 -69 -15 19 1147 0
-307 -1146 302 0
-307 -70 -15 20 1146 0
-307 16 -23 1151 0
-307 -16 23 1155 1154 1153 1152 0
-307 -1151 301 0
-307 -66 -15 16 1151 0
-307 -1155 300 0
-307 -71 -16 17 1155 0
-307 -1154 299 0
-307 -72 -16 18 1154 0
-307 -1153 298 0
-307 -73 -16 19 1153 0
-307 -1152 297 0
-307 -74 -16 20 1152 0
-307 17 -24 1157 1156 0
-307 -17 24 1160 1159 1158 0
-307 -1157 296 0
-307 -67 -15 17 1157 0
-307 -1156 295 0
-307 -71 -16 17 1156 0
-307 -1160 294 0
-307 -75 -17 18 1160 0
-307 -1159 293 0
-307 -76 -17 19 1159 0
-307 -1158 292 0
-307 -77 -17 20 1158 0
-307 18 -25 1163 1162 1161 0
-307 -18 25 1165 1164 0
-307 -1163 291 0
-307 -68 -15 18 1163 0
-307 -1162 290 0
-307 -72 -16 18 1162 0
-307 -1161 289 0
-307 -75 -17 18 1161 0
-307 -1165 288 0
-307 -78 -18 19 1165 0
-307 -1164 287 0
-307 -79 -18 20 1164 0
-307 19 -26 1169 1168 1167 1166 0
-307 -19 26 1170 0
-307 -1169 286 0
-307 -69 -15 19 1169 0
-307 -1168 285 0
-307 -73 -16 19 1168 0
-307 -1167 284 0
-307 -76 -17 19 1167 0
-307 -1166 283 0
-307 -78 -18 19 1166 0
-307 -1170 282 0
-307 -80 -19 20 1170 0
-307 20 -27 1175 1174 1173 1172 1171 0
-307 -20 27 0
-307 -1175 281 0
-307 -70 -15 20 1175 0
-307 -1174 280 0
-307 -74 -16 20 1174 0
-307 -1173 279 0
-307 -77 -17 20 1173 0
-307 -1172 278 0
-307 -79 -18 20 1172 0
-307 -1171 277 0
-307 -80 -19 20 1171 0
-307 21 -28 0
-307 -21 28 0
-307 275 276 0
-307 273 274 0
-307 271 272 0
-307 269 270 0
-307 267 268 0
-307 265 266 0
-307 263 264 0
-307 261 262 0
-307 259 260 0
-307 257 258 0
-307 255 256 0
-307 253 254 0
-307 251 252 0
-307 249 250 0
-307 247 248 0
-307 231 232 233 234 235 236 237 238 239 240 241 242 243 244 245 246 0
-308 0
-309 0
-310 0
-311 0
-312 0
-313 0
-314 0
-315 0
-316 0
-317 0
-318 0
-319 0
-320 0
-321 0
-322 0
-306 66 0
-306 15 0
-306 -16 0
-305 67 0
-305 15 0
-305 -17 0
-304 68 0
-304 15 0
-304 -18 0
-303 69 0
-303 15 0
-303 -19 0
-302 70 0
-302 15 0
-302 -20 0
-301 66 0
-301 15 0
-301 -16 0
-300 71 0
-300 16 0
-300 -17 0
-299 72 0
-299 16 0
-299 -18 0
-298 73 0
-298 16 0
-298 -19 0
-297 74 0
-297 16 0
-297 -20 0
-296 67 0
-296 15 0
-296 -17 0
-295 71 0
-295 16 0
-295 -17 0
-294 75 0
-294 17 0
-294 -18 0
-293 76 0
-293 17 0
-293 -19 0
-292 77 0
-292 17 0
-292 -20 0
-291 68 0
-291 15 0
-291 -18 0
-290 72 0
-290 16 0
-290 -18 0
-289 75 0
-289 17 0
-289 -18 0
-288 78 0
-288 18 0
-288 -19 0
-287 79 0
-287 18 0
-287 -20 0
-286 69 0
-286 15 0
-286 -19 0
-285 73 0
-285 16 0
-285 -19 0
-284 76 0
-284 17 0
-284 -19 0
-283 78 0
-283 18 0
-283 -19 0
-282 80 0
-282 19 0
-282 -20 0
-281 70 0
-281 15 0
-281 -20 0
-280 74 0
-280 16 0
-280 -20 0
-279 77 0
-279 17 0
-279 -20 0
-278 79 0
-278 18 0
-278 -20 0
-277 80 0
-277 19 0
-277 -20 0
-275 -66 -15 16 0
-276 -22 0
-276 23 0
-273 -67 -15 17 0
-274 -22 0
-274 24 0
-271 -68 -15 18 0
-272 -22 0
-272 25 0
-269 -69 -15 19 0
-270 -22 0
-270 26 0
-267 -70 -15 20 0
-268 -22 0
-268 27 0
-265 -71 -16 17 0
-266 -23 0
-266 24 0
-263 -72 -16 18 0
-264 -23 0
-264 25 0
-261 -73 -16 19 0
-262 -23 0
-262 26 0
-259 -74 -16 20 0
-260 -23 0
-260 27 0
-257 -75 -17 18 0
-258 -24 0
-258 25 0
-255 -76 -17 19 0
-256 -24 0
-256 26 0
-253 -77 -17 20 0
-254 -24 0
-254 27 0
-251 -78 -18 19 0
-252 -25 0
-252 26 0
-249 -79 -18 20 0
-250 -25 0
-250 27 0
-247 -80 -19 20 0
-248 -26 0
-248 27 0
-231 22 -29 0
-231 -22 29 1220 1219 1218 1217 1216 0
-231 -1220 230 0
-231 -81 -22 23 1220 0
-231 -1219 229 0
-231 -82 -22 24 1219 0
-231 -1218 228 0
-231 -83 -22 25 1218 0
-231 -1217 227 0
-231 -84 -22 26 1217 0
-231 -1216 226 0
-231 -85 -22 27 1216 0
-231 23 -30 1221 0
-231 -23 30 1225 1224 1223 1222 0
-231 -1221 225 0
-231 -81 -22 23 1221 0
-231 -1225 224 0
-231 -86 -23 24 1225 0
-231 -1224 223 0
-231 -87 -23 25 1224 0
-231 -1223 222 0
-231 -88 -23 26 1223 0
-231 -1222 221 0
-231 -89 -23 27 1222 0
-231 24 -31 1227 1226 0
-231 -24 31 1230 1229 1228 0
-231 -1227 220 0
-231 -82 -22 24 1227 0
-231 -1226 219 0
-231 -86 -23 24 1226 0
-231 -1230 218 0
-231 -90 -24 25 1230 0
-231 -1229 217 0
-231 -91 -24 26 1229 0
-231 -1228 216 0
-231 -92 -24 27 1228 0
-231 25 -32 1233 1232 1231 0
-231 -25 32 1235 1234 0
-231 -1233 215 0
-231 -83 -22 25 1233 0
-231 -1232 214 0
-231 -87 -23 25 1232 0
-231 -1231 213 0
-231 -90 -24 25 1231 0
-231 -1235 212 0
-231 -93 -25 26 1235 0
-231 -1234 211 0
-231 -94 -25 27 1234 0
-231 26 -33 1239 1238 1237 1236 0
-231 -26 33 1240 0
-231 -1239 210 0
-231 -84 -22 26 1239 0
-231 -1238 209 0
-231 -88 -23 26 1238 0
-231 -1237 208 0
-231 -91 -24 26 1237 0
-231 -1236 207 0
-231 -93 -25 26 1236 0
-231 -1240 206 0
-231 -95 -26 27 1240 0
-231 27 -34 1245 1244 1243 1242 1241 0
-231 -27 34 0
-231 -1245 205 0
-231 -85 -22 27 1245 0
-231 -1244 204 0
-231 -89 -23 27 1244 0
-231 -1243 203 0
-231 -92 -24 27 1243 0
-231 -1242 202 0
-231 -94 -25 27 1242 0
-231 -1241 201 0
-231 -95 -26 27 1241 0
-231 28 -35 0
-231 -28 35 0
-231 199 200 0
-231 197 198 0
-231 195 196 0
-231 193 194 0
-231 191 192 0
-231 189 190 0
-231 187 188 0
-231 185 186 0
-231 183 184 0
-231 181 182 0
-231 179 180 0
-231 177 178 0
-231 175 176 0
-231 173 174 0
-231 171 172 0
-231 166 167 168 169 170 0
-232 0
-233 0
-234 0
-235 0
-236 0
-237 0
-238 0
-239 0
-240 0
-241 0
-242 0
-243 0
-244 0
-245 0
-246 0
-230 81 0
-230 22 0
-230 -23 0
-229 82 0
-229 22 0
-229 -24 0
-228 83 0
-228 22 0
-228 -25 0
-227 84 0
-227 22 0
-227 -26 0
-226 85 0
-226 22 0
-226 -27 0
-225 81 0
-225 22 0
-225 -23 0
-224 86 0
-224 23 0
-224 -24 0
-223 87 0
-223 23 0
-223 -25 0
-222 88 0
-222 23 0
-222 -26 0
-221 89 0
-221 23 0
-221 -27 0
-220 82 0
-220 22 0
-220 -24 0
-219 86 0
-219 23 0
-219 -24 0
-218 90 0
-218 24 0
-218 -25 0
-217 91 0
-217 24 0
-217 -26 0
-216 92 0
-216 24 0
-216 -27 0
-215 83 0
-215 22 0
-215 -25 0
-214 87 0
-214 23 0
-214 -25 0
-213 90 0
-213 24 0
-213 -25 0
-212 93 0
-212 25 0
-212 -26 0
-211 94 0
-211 25 0
-211 -27 0
-210 84 0
-210 22 0
-210 -26 0
-209 88 0
-209 23 0
-209 -26 0
-208 91 0
-208 24 0
-208 -26 0
-207 93 0
-207 25 0
-207 -26 0
-206 95 0
-206 26 0
-206 -27 0
-205 85 0
-205 22 0
-205 -27 0
-204 89 0
-204 23 0
-204 -27 0
-203 92 0
-203 24 0
-203 -27 0
-202 94 0
-202 25 0
-202 -27 0
-201 95 0
-201 26 0
-201 -27 0
-199 -81 -22 23 0
-200 -29 0
-200 30 0
-197 -82 -22 24 0
-198 -29 0
-198 31 0
-195 -83 -22 25 0
-196 -29 0
-196 32 0
-193 -84 -22 26 0
-194 -29 0
-194 33 0
-191 -85 -22 27 0
-192 -29 0
-192 34 0
-189 -86 -23 24 0
-190 -30 0
-190 31 0
-187 -87 -23 25 0
-188 -30 0
-188 32 0
-185 -88 -23 26 0
-186 -30 0
-186 33 0
-183 -89 -23 27 0
-184 -30 0
-184 34 0
-181 -90 -24 25 0
-182 -31 0
-182 32 0
-179 -91 -24 26 0
-180 -31 0
-180 33 0
-177 -92 -24 27 0
-178 -31 0
-178 34 0
-175 -93 -25 26 0
-176 -32 0
-176 33 0
-173 -94 -25 27 0
-174 -32 0
-174 34 0
-171 -95 -26 27 0
-172 -33 0
-172 34 0
-166 29 0
-166 -30 0
-167 30 0
-167 -31 0
-168 31 0
-168 -32 0
-169 32 0
-169 -33 0
-170 33 0
-170 -34 0
